networks/zoo_146_1988/zoo_146_1988.txt
Number of groups: 89
Flow 14: {25 100} 
Flow 28: {64 63} {63 59} {59 46} {46 43} {43 118} 
Flow 33: {1 2} {2 4} {4 11} {11 55} {55 130} 
Flow 73: {2 7} {7 53} {53 128} 
Flow 147: {6 11} {11 7} {7 54} {54 129} 
Flow 164: {10 9} {9 84} 
Flow 165: {11 33} {33 47} {47 28} {28 10} {10 85} 
Flow 190: {52 59} {59 44} 
Flow 227: {8 7} {7 52} {52 58} {58 57} 
Flow 246: {9 10} {10 28} {28 16} {16 61} 
Flow 317: {59 26} {26 38} 
Flow 339: {4 2} {2 1} {1 64} {64 139} 
Flow 344: {53 63} {63 71} {71 146} 
Flow 358: {13 47} {47 59} {59 18} {18 17} 
Flow 367: {61 30} 
Flow 374: {69 28} {28 41} {41 116} 
Flow 396: {14 13} {13 69} {69 16} {16 91} 
Flow 430: {15 37} {37 36} {36 111} 
Flow 447: {37 61} {61 47} {47 33} {33 11} {11 67} 
Flow 484: {47 43} {43 46} {46 121} 
Flow 485: {16 69} {69 47} {47 122} 
Flow 503: {18 59} {59 63} {63 64} {64 1} {1 76} 
Flow 519: {17 18} {18 30} {30 105} 
Flow 522: {13 35} 
Flow 524: {17 26} {26 41} {41 42} 
Flow 559: {30 61} {61 37} {37 112} 
Flow 623: {20 50} {50 19} {19 21} 
Flow 675: {59 58} {58 133} 
Flow 686: {22 21} {21 26} 
Flow 725: {24 23} {23 21} {21 96} 
Flow 731: {24 25} {25 26} {26 59} {59 33} {33 45} 
Flow 772: {21 19} {19 50} {50 20} {20 95} 
Flow 774: {21 22} {22 97} 
Flow 789: {18 39} {39 114} 
Flow 799: {26 61} {61 49} {49 124} 
Flow 801: {51 126} 
Flow 818: {59 70} {70 145} 
Flow 831: {27 51} {51 26} {26 25} {25 24} 
Flow 881: {6 8} {8 83} 
Flow 905: {29 42} {42 117} 
Flow 930: {30 18} {18 26} {26 51} {51 27} {27 102} 
Flow 953: {31 50} {50 56} {56 59} 
Flow 984: {32 27} {27 56} {56 57} {57 132} 
Flow 1043: {34 29} 
Flow 1055: {34 41} {41 59} {59 134} 
Flow 1080: {36 49} {49 61} {61 26} {26 40} {40 115} 
Flow 1104: {37 15} {15 16} {16 28} {28 103} 
Flow 1116: {38 26} {26 101} 
Flow 1120: {38 41} {41 56} {56 50} {50 125} 
Flow 1148: {39 49} {49 36} {36 37} 
Flow 1181: {40 41} {41 28} {28 29} {29 104} 
Flow 1193: {40 26} {26 32} {32 62} {62 137} 
Flow 1209: {69 13} {13 14} {14 89} 
Flow 1215: {26 21} {21 23} {23 98} 
Flow 1229: {41 38} {38 113} 
Flow 1237: {28 47} {47 48} {48 123} 
Flow 1276: {42 29} {29 28} {28 69} {69 35} {35 110} 
Flow 1279: {42 41} {41 40} 
Flow 1304: {43 47} {47 45} {45 120} 
Flow 1313: {45 47} {47 13} {13 88} 
Flow 1325: {46 59} {59 52} {52 7} {7 2} {2 77} 
Flow 1374: {41 34} {34 109} 
Flow 1411: {48 45} {45 33} {33 108} 
Flow 1414: {48 47} {47 61} {61 136} 
Flow 1450: {49 39} {39 18} {18 44} {44 119} 
Flow 1468: {56 58} {58 52} {52 3} {3 78} 
Flow 1483: {23 24} {24 99} 
Flow 1512: {27 62} {62 60} {60 135} 
Flow 1556: {3 63} {63 138} 
Flow 1610: {54 7} {7 8} {8 6} {6 81} 
Flow 1614: {7 11} {11 12} {12 87} 
Flow 1648: {55 11} {11 86} 
Flow 1703: {57 58} 
Flow 1712: {57 56} {56 41} {41 26} {26 17} {17 92} 
Flow 1753: {58 56} {56 27} {27 32} {32 107} 
Flow 1763: {58 59} {59 47} {47 69} {69 144} 
Flow 1792: {60 62} {62 32} {32 26} {26 18} {18 93} 
Flow 1800: {11 6} {6 5} {5 80} 
Flow 1810: {61 16} {16 15} {15 90} 
Flow 1852: {33 65} {65 66} {66 141} 
Flow 1874: {62 27} 
Flow 1905: {63 3} {3 52} {52 127} 
Flow 1913: {63 53} {53 65} {65 67} {67 142} 
Flow 1929: {66 65} {65 53} {53 7} {7 82} 
Flow 1939: {67 11} {11 4} {4 79} 
Flow 1960: {67 65} {65 140} 
Flow 1962: {68 12} {12 11} 
Flow 1965: {68 65} {65 33} {33 59} {59 56} 
Flow 1987: {70 59} {59 41} 
Time taken running everything: 149 seconds
